c t pwmc
c file mc2023_track4_097.cnf
p cnf 288 1198
c p show 251 252 253 254 255 256 257 258 259 260 261 262 263 264 265 266 267 268 269 270 271 272 273 274 275 276 277 278 279 280 281 282 283 284 285 286 287 0
-288 0
-2 0
248 -204 208 205 273 0
-248 -273 -204 205 208 0
-266 -259 267 11 10 0
-264 265 -259 25 24 0
-262 45 -259 263 44 0
-252 -234 -251 -261 -260 0
-282 -235 236 244 -245 0
282 -235 236 244 245 0
278 -211 212 220 221 0
286 202 -3 4 200 0
-278 -211 212 220 -221 0
-277 224 -223 231 -229 0
277 224 -223 231 229 0
-286 202 -3 4 -200 0
275 -210 223 211 232 0
-275 -210 223 211 -232 0
-258 -260 -114 -261 0
-261 187 251 260 0
-256 19 -268 13 0
252 251 187 -261 0
-253 186 -260 261 0
253 186 -260 -261 0
-261 234 -251 260 0
-252 -260 234 261 0
-252 -260 234 251 0
252 -261 234 -251 0
252 -261 186 260 0
-186 -253 -260 -261 0
262 -263 259 44 0
16 265 -267 266 0
-266 16 267 -265 0
285 237 -236 242 0
-285 237 -236 -242 0
-171 -255 -260 -261 0
-44 45 -263 -262 0
29 -255 -268 13 0
84 -251 -268 13 0
265 251 -163 164 0
-265 -251 -163 164 0
-38 163 251 -265 0
-38 163 -251 265 0
164 252 -25 -265 0
164 -252 -25 265 0
100 -260 261 -259 0
100 -260 259 -261 0
143 -257 -260 261 0
143 257 -260 -261 0
143 256 -261 260 0
100 258 260 -261 0
49 -253 -268 13 0
-143 -257 -260 -261 0
-100 -260 -259 -261 0
193 -258 -268 13 0
264 24 259 -265 0
-264 -24 -265 25 0
264 -24 -259 25 0
-270 -202 204 250 0
-202 204 203 250 0
35 -254 -268 13 0
-263 183 251 261 0
-254 182 -260 261 0
254 182 -260 -261 0
253 -261 182 260 0
264 38 -265 263 0
264 157 251 -265 0
-262 -261 263 65 0
262 65 261 -263 0
-254 -260 -182 -261 0
264 -265 157 263 0
263 157 251 -265 0
-256 -260 156 261 0
256 -260 156 -261 0
-203 -208 209 247 0
-281 -212 213 -218 0
281 -212 213 218 0
180 -252 -45 263 0
180 252 -45 -263 0
-65 179 -251 263 0
-65 179 251 -263 0
-179 -263 -251 180 0
-179 263 251 180 0
270 -208 247 209 0
255 -261 156 260 0
71 -252 -268 13 0
-256 -260 -156 -261 0
-209 -271 210 235 0
-209 234 235 210 0
10 266 259 -267 0
262 45 -259 -44 0
171 -255 -260 261 0
171 255 -260 -261 0
171 254 -261 260 0
-133 251 267 134 0
-133 134 -267 -251 0
-257 12 -268 13 0
-16 133 251 -267 0
-16 133 -251 267 0
266 -267 115 251 0
266 -267 115 265 0
265 251 115 -267 0
-258 -260 114 261 0
258 -260 114 -261 0
257 -261 114 260 0
134 -11 -267 252 0
134 -11 267 -252 0
262 183 261 -263 0
266 11 -259 -10 0
262 -263 251 183 0
-10 11 -267 -266 0
-264 38 265 -263 0
159 -141 146 0
159 141 -146 0
-162 -156 -157 0
-159 141 146 0
-159 -141 -146 0
-264 -157 -251 0
-159 -139 -158 0
159 -139 158 0
161 -160 169 0
167 161 -160 0
-161 165 163 0
-161 162 163 0
167 -160 169 0
-264 -263 -157 0
176 165 -163 0
161 -162 -163 0
-161 160 -167 0
-165 161 -163 0
-263 -157 -251 0
-165 161 -162 0
-161 162 165 0
-170 171 172 0
-170 173 172 0
-173 170 -172 0
-173 -171 170 0
-171 170 -172 0
-171 260 261 0
-171 255 261 0
156 -162 157 0
159 139 -158 0
-25 172 -251 0
-166 253 263 0
174 -173 45 0
166 -173 65 0
-173 65 45 0
166 -173 174 0
-166 173 -45 0
-174 173 -65 0
-174 -252 -263 0
-174 252 263 0
174 252 -263 0
174 -252 263 0
-176 175 162 0
176 175 -162 0
-176 -175 -162 0
176 -175 162 0
-147 -148 -124 0
-161 160 -169 0
-176 165 163 0
-176 -165 -163 0
188 -177 178 0
188 -177 190 0
162 156 -157 0
162 -156 157 0
-163 38 164 0
252 265 -164 0
-252 -265 -164 0
166 -165 45 0
-165 145 65 0
-165 65 45 0
166 -165 145 0
165 -145 -45 0
-171 -254 260 0
166 253 -263 0
166 -253 263 0
167 -168 151 0
-151 167 168 0
-151 -168 -167 0
168 -167 151 0
168 153 -155 0
-153 168 155 0
-153 -168 -155 0
-168 153 155 0
-169 177 170 0
-169 175 170 0
-169 175 177 0
-138 -147 137 0
-138 -149 137 0
-170 169 -175 0
-170 173 171 0
136 110 -112 0
136 112 -110 0
-136 -110 -112 0
-136 112 110 0
-136 -135 -108 0
136 -135 108 0
135 -136 108 0
136 135 -108 0
-252 -134 -267 0
252 -134 267 0
-133 16 134 0
132 -255 263 0
165 -166 -65 0
-166 -253 -263 0
-132 -255 -263 0
131 -132 -65 0
131 -117 -45 0
140 -131 133 0
139 140 -129 0
139 -140 129 0
-139 140 129 0
-139 -140 -129 0
-139 -141 138 0
-141 138 -146 0
-139 138 -146 0
139 -138 146 0
-138 141 146 0
139 -138 141 0
-159 139 158 0
160 -169 -167 0
-149 -147 137 0
149 147 -137 0
138 147 -137 0
138 149 -137 0
-128 129 133 0
-128 131 133 0
-128 131 129 0
-100 -127 -99 0
-127 100 99 0
127 -100 99 0
127 100 -99 0
127 126 -97 0
-127 126 97 0
127 -126 97 0
132 255 -263 0
-132 255 263 0
125 -118 116 0
129 -130 -38 0
-130 -253 -265 0
-130 253 265 0
130 253 -265 0
130 -253 265 0
132 -131 45 0
-131 65 117 0
-131 65 45 0
132 -131 117 0
124 125 -113 0
124 -125 113 0
-125 116 118 0
-116 -125 -118 0
-116 125 118 0
-150 153 155 0
-119 129 -25 0
-129 38 25 0
119 -129 38 0
130 -129 25 0
128 -129 -131 0
128 -131 -133 0
128 -129 -133 0
-152 143 142 0
-152 151 144 0
152 -144 151 0
-152 -151 -144 0
-151 152 144 0
-151 150 -155 0
-153 -151 150 0
-153 150 -155 0
-127 -126 -97 0
-143 257 261 0
-150 151 155 0
-118 38 25 0
-154 252 265 0
154 252 -265 0
154 -252 265 0
-156 -157 155 0
260 -156 261 0
256 -156 261 0
-255 260 -156 0
160 -149 150 0
158 -149 150 0
158 160 -149 0
-158 -160 149 0
-160 149 -150 0
-158 149 -150 0
-154 -252 -265 0
130 119 -129 0
-154 153 -38 0
-130 153 -25 0
130 -153 154 0
-153 38 25 0
130 -153 38 0
154 -153 25 0
-143 152 142 0
152 143 -142 0
-143 -152 -142 0
132 -144 145 0
-144 65 45 0
132 -144 65 0
-144 145 45 0
-143 -256 260 0
-143 260 261 0
-251 142 -11 0
141 -144 -142 0
141 -143 -142 0
-143 -144 141 0
-141 144 142 0
-141 144 143 0
-141 143 142 0
-140 -131 -133 0
-140 131 133 0
140 131 -133 0
-126 -148 -128 0
128 -148 126 0
148 126 -128 0
-126 148 128 0
148 -147 124 0
176 -165 163 0
147 148 -124 0
147 -148 124 0
146 -114 115 0
146 114 -115 0
114 -146 115 0
-146 -114 -115 0
145 -254 263 0
145 254 -263 0
-145 254 263 0
-145 -254 -263 0
-145 144 -65 0
-132 144 -45 0
230 -160 229 0
160 -230 229 0
167 161 -228 0
-161 -228 -167 0
167 -161 228 0
161 228 -167 0
228 -227 169 0
-228 -169 -227 0
228 -169 227 0
-228 227 169 0
188 -226 190 0
-226 -188 -190 0
226 -188 190 0
188 226 -190 0
-225 226 178 0
-178 -225 -226 0
233 177 -232 0
-233 -177 -232 0
233 -177 232 0
177 -233 232 0
-276 227 231 0
-274 225 231 0
276 -225 -231 0
-227 274 -231 0
-227 -225 -231 0
276 274 -231 0
158 -230 150 0
-158 -230 -150 0
158 230 -150 0
-158 230 150 0
230 160 -229 0
-230 -160 -229 0
149 -222 221 0
-280 216 220 0
-279 214 220 0
279 -216 -220 0
-216 -214 -220 0
279 280 -220 0
-104 -219 -90 0
-219 104 90 0
219 -104 90 0
219 104 -90 0
219 -218 106 0
-218 -219 -106 0
218 219 -106 0
106 218 -219 0
-217 107 120 0
-178 225 226 0
225 -226 178 0
274 -225 224 0
-274 227 -224 0
-276 225 -224 0
277 -229 223 0
-277 229 223 0
138 -222 147 0
-138 -222 -147 0
-138 222 147 0
138 222 -147 0
149 222 -221 0
-222 -149 -221 0
222 -149 221 0
245 246 -89 0
-284 240 244 0
-283 238 244 0
280 -214 -220 0
284 -238 -244 0
285 -242 236 0
283 -240 -244 0
-238 -240 -244 0
284 283 -244 0
8 243 -21 0
243 -8 21 0
-243 -8 -21 0
-243 8 21 0
-242 -243 -30 0
-242 243 30 0
-243 242 30 0
242 243 -30 0
241 31 -52 0
206 250 -272 0
-249 -179 -181 0
-249 181 179 0
-274 -276 -224 0
181 249 -179 0
249 -248 184 0
-249 -248 -184 0
249 248 -184 0
-249 248 184 0
-271 247 234 0
75 246 -87 0
246 -75 87 0
-246 -75 -87 0
75 -246 87 0
-245 -246 -89 0
-245 246 89 0
-246 245 89 0
238 240 -237 0
-283 -284 -237 0
-285 242 236 0
-282 245 235 0
282 -245 235 0
252 -234 251 0
-234 260 261 0
260 -234 251 0
252 -234 261 0
175 -233 170 0
-170 -233 -175 0
233 175 -170 0
233 170 -175 0
241 -31 52 0
-241 -31 -52 0
-241 31 52 0
-252 -187 -260 0
-54 -240 -241 0
241 -240 54 0
240 54 -241 0
240 241 -54 0
239 55 -57 0
239 -55 57 0
-239 -55 -57 0
-239 55 57 0
-238 -239 -74 0
-238 239 74 0
-239 238 74 0
238 239 -74 0
283 -238 237 0
284 -240 237 0
-283 240 -237 0
-284 238 -237 0
-188 189 171 0
-189 188 171 0
-171 188 189 0
189 173 -172 0
-173 189 172 0
-189 173 172 0
-173 -189 -172 0
-183 190 -182 0
-192 -191 -12 0
-191 192 12 0
-192 191 12 0
192 -12 191 0
192 193 -194 0
-193 192 194 0
276 -227 224 0
227 225 -224 0
197 196 -198 0
195 -10 12 0
195 -14 -10 0
195 -14 12 0
-12 -195 14 0
-195 -12 10 0
-195 14 10 0
-266 -265 -194 0
194 265 -267 0
266 -267 194 0
193 -259 -13 0
-193 13 268 0
-193 258 13 0
-193 259 -13 0
-192 193 194 0
-189 -171 -188 0
181 182 -183 0
-186 207 185 0
182 -181 183 0
-183 -181 -182 0
-252 -263 -180 0
252 263 -180 0
-179 65 180 0
178 -179 -181 0
178 -184 -181 0
178 -184 -179 0
-178 184 179 0
-178 181 184 0
-178 181 179 0
-178 177 -190 0
-178 177 -188 0
-188 177 -190 0
-217 -107 -120 0
-177 178 190 0
-186 253 261 0
-186 260 261 0
185 -45 -251 0
-186 184 -187 0
-186 184 -185 0
-184 185 187 0
-262 -183 -251 0
-262 -261 -183 0
-261 -183 -251 0
-253 260 -182 0
254 -182 261 0
260 -182 261 0
181 183 -182 0
216 214 -213 0
-193 -192 -194 0
207 -185 186 0
-170 169 -177 0
-177 -175 169 0
-279 -280 -213 0
-279 216 -213 0
-280 214 -213 0
281 -218 212 0
-281 218 212 0
-278 221 211 0
278 -221 211 0
-275 232 210 0
275 -232 210 0
-234 271 209 0
-270 208 203 0
-186 -207 -185 0
-207 186 185 0
-186 -252 260 0
217 -107 120 0
217 107 -120 0
-216 217 122 0
-216 -217 -122 0
-122 216 217 0
-217 216 122 0
-215 123 135 0
-215 -123 -135 0
135 215 -123 0
123 215 -135 0
-214 215 137 0
-137 -214 -215 0
-137 214 215 0
214 -215 137 0
279 -214 213 0
201 -195 191 0
280 -216 213 0
-201 195 191 0
-201 -200 -7 0
7 201 -200 0
-201 7 200 0
201 200 -7 0
-268 199 -267 0
198 -259 -199 0
-193 197 -12 0
-193 197 194 0
197 -12 194 0
-197 12 -194 0
-197 193 -194 0
-197 193 12 0
-196 197 198 0
249 179 -181 0
-197 196 198 0
207 -206 187 0
-207 -206 -187 0
207 -187 206 0
-207 206 187 0
-206 272 205 0
5 -287 205 0
-5 -272 -205 0
287 206 -205 0
-5 206 -205 0
287 -272 -205 0
-273 248 204 0
273 -248 204 0
203 -260 -251 0
270 202 -203 0
47 -16 -48 0
43 -256 267 0
-44 263 259 0
-44 263 -45 0
44 -263 -45 0
-262 -261 -45 0
262 -45 261 0
-262 45 261 0
262 -261 45 0
-46 47 49 0
-46 50 49 0
-46 50 47 0
46 -50 -47 0
46 -49 -50 0
-201 -191 -195 0
-191 201 195 0
-197 -196 -198 0
43 256 -267 0
-43 256 267 0
-43 -256 -267 0
-43 -16 42 0
38 -50 25 0
40 38 -50 0
51 -50 25 0
49 -254 -13 0
-49 13 268 0
-49 253 13 0
-49 254 -13 0
-255 48 267 0
255 48 -267 0
255 -48 267 0
-255 -48 -267 0
43 -47 48 0
-47 16 11 0
43 -47 16 0
-47 48 11 0
-49 46 -47 0
-39 -265 -259 0
-264 -38 263 0
264 -38 265 0
-38 -263 -265 0
-40 37 -38 0
-39 37 -25 0
40 -37 39 0
-37 38 25 0
-37 39 38 0
-65 -261 -263 0
-15 16 11 0
36 -263 261 0
262 36 -263 0
-255 35 -13 0
-35 13 268 0
-35 254 13 0
-35 255 -13 0
42 -28 -11 0
43 28 -42 0
-42 16 11 0
28 -42 16 0
43 -42 11 0
41 -42 -44 0
41 -46 -44 0
41 -42 -46 0
-41 46 42 0
-262 -65 261 0
262 -65 263 0
-35 -61 -60 0
-61 37 36 0
-61 -37 -36 0
61 37 -36 0
61 -37 36 0
-62 -44 63 0
-39 265 259 0
39 -265 259 0
39 265 -259 0
-40 -258 -265 0
-40 258 265 0
40 258 -265 0
40 -258 265 0
-41 44 42 0
-43 47 -11 0
-262 -261 -36 0
40 -37 25 0
-61 60 35 0
-35 61 60 0
59 42 -44 0
59 -42 44 0
-59 -42 -44 0
-59 44 42 0
-59 46 58 0
59 -46 58 0
-59 -46 -58 0
59 46 -58 0
66 -263 259 0
-66 263 259 0
-66 -263 -259 0
57 -58 -62 0
-65 -67 64 0
-66 64 -45 0
66 67 -64 0
65 45 -64 0
65 66 -64 0
67 45 -64 0
64 -63 68 0
44 62 -70 0
62 44 -63 0
-63 62 -70 0
-62 -44 70 0
-62 70 63 0
54 -74 57 0
54 -55 57 0
-53 -22 -24 0
-72 70 261 0
53 22 -24 0
53 -22 24 0
53 52 -26 0
52 -53 26 0
-52 53 26 0
-52 -53 -26 0
-257 51 265 0
257 51 -265 0
257 -51 265 0
-257 -51 -265 0
50 -38 -51 0
-40 50 -25 0
40 51 -50 0
57 -58 60 0
57 60 -62 0
-12 258 -13 0
-57 58 62 0
-57 -60 62 0
-57 -60 58 0
-56 -34 -32 0
-56 34 32 0
56 -34 32 0
34 56 -32 0
-41 55 56 0
55 -56 41 0
-55 56 41 0
-56 -55 -41 0
-54 55 74 0
-54 55 -57 0
-54 74 -57 0
54 -55 -74 0
22 -53 24 0
17 -15 16 0
-15 18 11 0
-15 14 -19 0
14 -19 20 0
14 -15 20 0
-14 15 -20 0
-14 19 -20 0
-14 15 19 0
13 268 -267 0
13 267 -268 0
268 267 -13 0
-267 -13 -268 0
12 -258 -13 0
-12 13 268 0
-12 257 13 0
-256 29 -13 0
266 -16 267 0
-266 -16 265 0
-17 -259 -267 0
-17 259 267 0
17 259 -267 0
17 -259 267 0
-18 -258 -267 0
-18 258 267 0
18 258 -267 0
18 -258 267 0
-19 257 -13 0
-19 256 13 0
-19 13 268 0
-257 19 -13 0
287 4 -5 0
28 -27 11 0
15 -11 -17 0
17 -15 18 0
7 -8 -30 0
7 -30 21 0
7 -8 21 0
7 -6 191 0
7 -6 -195 0
-6 -195 191 0
-191 6 195 0
-191 6 -7 0
6 195 -7 0
6 196 -5 0
-6 -196 -5 0
-6 196 5 0
-196 6 5 0
-54 30 31 0
-29 13 268 0
-286 200 3 0
286 -200 3 0
266 -265 11 0
-266 265 11 0
266 265 -11 0
-266 -265 -11 0
10 -11 -267 0
-10 -11 267 0
-10 259 267 0
-12 -9 -10 0
-9 10 12 0
-12 9 10 0
9 -10 12 0
9 8 -14 0
26 -29 24 0
-16 -265 -267 0
15 -18 -16 0
-9 8 14 0
-9 -8 -14 0
9 -8 14 0
8 -7 30 0
8 -7 -21 0
-7 30 -21 0
34 -31 41 0
34 -31 -32 0
-30 -31 52 0
-30 54 -31 0
54 -30 52 0
-54 30 -52 0
30 31 -52 0
-23 22 19 0
23 -22 19 0
-29 255 13 0
-29 256 -13 0
28 -257 267 0
28 257 -267 0
-28 257 267 0
-28 -257 -267 0
-28 -16 27 0
-35 34 36 0
34 -37 36 0
-35 34 -37 0
-34 37 35 0
-34 37 -36 0
-34 35 -36 0
33 -29 27 0
-41 46 44 0
61 -60 35 0
-33 27 29 0
-32 -33 -24 0
-32 33 24 0
32 -33 24 0
33 32 -24 0
31 -34 32 0
-34 31 -41 0
-41 31 32 0
41 -31 -32 0
-23 15 20 0
-15 -23 -20 0
-15 23 20 0
23 15 -20 0
23 -19 22 0
-102 71 261 0
102 -71 261 0
-23 -19 -22 0
22 21 -26 0
22 21 -24 0
21 -26 -24 0
-21 -22 26 0
-21 26 24 0
-22 -21 24 0
-264 -263 -20 0
20 263 -265 0
264 -265 20 0
-18 27 -11 0
28 18 -27 0
-27 16 11 0
18 -27 16 0
-27 33 29 0
-27 -33 -29 0
26 -27 24 0
26 -29 -27 0
-26 -24 29 0
-26 27 29 0
-26 -24 27 0
264 -263 25 0
-264 263 25 0
264 263 -25 0
-264 -263 -25 0
24 -265 -25 0
-24 -25 265 0
-24 265 259 0
-103 79 80 0
-102 -71 -261 0
-102 72 101 0
102 72 -101 0
-102 -72 -101 0
-100 -258 260 0
-100 261 259 0
-100 260 261 0
99 -251 -13 0
98 -252 267 0
98 252 -267 0
-98 252 267 0
-98 -252 -267 0
-98 -16 97 0
-107 110 108 0
-107 112 110 0
-103 -80 -79 0
110 111 -81 0
-122 106 -120 0
122 -106 120 0
107 -106 120 0
107 122 -106 0
-76 -105 -85 0
-105 76 85 0
105 76 -85 0
105 -76 85 0
105 104 -78 0
-105 104 78 0
105 -104 78 0
-105 -104 -78 0
-80 79 103 0
-79 103 80 0
102 71 -261 0
95 257 -263 0
-95 -257 -263 0
65 -94 67 0
95 -94 45 0
-255 93 265 0
255 93 -265 0
255 -93 265 0
-255 -93 -265 0
-93 -38 92 0
-73 92 -25 0
93 73 -92 0
38 -92 25 0
38 73 -92 0
93 -92 25 0
-94 -92 91 0
-94 -96 91 0
102 -72 101 0
-122 -107 106 0
94 96 -91 0
94 92 -91 0
97 -83 -11 0
98 -97 83 0
-97 16 11 0
-97 83 16 0
98 -97 11 0
-97 96 -99 0
-100 -97 96 0
-100 96 -99 0
100 -96 99 0
-96 97 99 0
100 -96 97 0
95 -257 263 0
-123 -137 122 0
-65 -95 94 0
94 -67 -45 0
95 -94 67 0
65 -94 45 0
-120 -103 -121 0
-103 120 121 0
-121 120 103 0
119 -254 265 0
119 254 -265 0
-119 254 265 0
-119 -254 -265 0
-119 118 -38 0
-93 118 -25 0
119 93 -118 0
110 -111 81 0
151 -150 153 0
119 -118 25 0
117 -256 263 0
117 256 -263 0
-117 256 263 0
-117 -256 -263 0
-117 -65 116 0
-124 -125 -113 0
125 -124 113 0
-126 123 -124 0
-126 -128 123 0
-128 123 -124 0
128 -123 124 0
128 126 -123 0
126 -123 124 0
-95 257 263 0
65 -116 45 0
-137 -135 122 0
137 -122 135 0
123 -122 135 0
-122 137 123 0
-121 -101 -91 0
-121 91 101 0
91 121 -101 0
101 121 -91 0
-120 121 103 0
111 -82 84 0
-111 -82 -84 0
-111 82 84 0
-110 -111 -81 0
-110 111 81 0
-107 106 -120 0
93 -118 38 0
109 -94 92 0
109 94 -92 0
-92 -109 -94 0
94 -109 92 0
-108 -96 -109 0
109 -108 96 0
108 96 -109 0
109 -96 108 0
107 -112 -108 0
107 -110 -112 0
107 -110 -108 0
-107 112 108 0
-95 116 -45 0
95 117 -116 0
122 -135 -123 0
-82 -84 80 0
-82 80 -81 0
95 65 -116 0
117 -116 45 0
-266 -115 -251 0
-266 -265 -115 0
-265 -115 -251 0
-257 260 -114 0
258 -114 261 0
260 -114 261 0
-114 -115 113 0
112 -118 -113 0
112 -116 -113 0
-118 112 -116 0
-112 118 113 0
116 -112 118 0
-254 -69 -267 0
-253 83 267 0
-49 -50 -77 0
-49 50 77 0
-50 77 49 0
78 -80 79 0
-71 70 261 0
-72 -71 70 0
-64 68 79 0
-68 64 79 0
68 64 -79 0
-64 -68 -79 0
82 81 -80 0
82 84 -80 0
84 81 -80 0
-84 80 -81 0
50 -77 49 0
-77 -76 -47 0
-256 -73 -265 0
82 -69 -11 0
-82 83 69 0
-82 16 11 0
-82 69 16 0
83 -82 11 0
254 69 -267 0
81 -261 259 0
-254 69 267 0
-70 71 -261 0
81 -261 -260 0
260 -81 -259 0
72 -70 71 0
72 -70 -261 0
-112 116 113 0
111 82 -84 0
256 -73 265 0
256 73 -265 0
-73 -38 72 0
-256 73 265 0
74 75 -89 0
74 75 -87 0
74 -87 -89 0
-74 87 89 0
-51 72 -25 0
51 -72 73 0
38 -72 25 0
51 -72 38 0
73 -72 25 0
71 -253 -13 0
-89 -106 90 0
104 -89 90 0
77 -76 47 0
-77 76 47 0
77 76 -47 0
-76 75 85 0
75 85 -78 0
75 -76 -78 0
76 -75 78 0
-75 -85 78 0
76 -75 -85 0
-75 -74 87 0
-74 -75 89 0
-71 253 -13 0
252 -71 13 0
-71 13 268 0
-92 -96 91 0
92 96 -91 0
-44 -63 -86 0
-87 -88 -62 0
-87 88 62 0
87 -88 62 0
87 88 -62 0
58 -60 88 0
88 -58 60 0
-58 -60 -88 0
-88 58 60 0
89 106 -90 0
-104 89 -90 0
106 89 -104 0
258 67 -263 0
-106 -89 104 0
69 -68 11 0
-84 251 13 0
258 -67 263 0
-101 90 -103 0
-67 -258 -263 0
-101 90 91 0
91 -103 90 0
66 263 -259 0
101 -90 -91 0
101 -90 103 0
-91 -90 103 0
-83 -16 82 0
-253 -83 -267 0
254 -69 267 0
-83 253 267 0
83 253 -267 0
44 -63 86 0
44 -86 63 0
252 -84 -13 0
-69 -16 68 0
-48 68 -11 0
69 48 -68 0
16 -68 11 0
48 16 -68 0
-44 86 63 0
86 -70 85 0
-85 86 70 0
-86 -85 -70 0
84 -252 -13 0
85 -86 70 0
67 -258 263 0
-84 13 268 0
-185 45 0
-206 -250 0
272 -250 0
-187 261 0
-185 251 0
3 -202 0
-187 -251 0
186 -184 0
-183 263 0
3 -4 0
45 -180 0
-64 63 0
-287 -4 0
63 -68 0
-4 5 0
182 -190 0
-234 -247 0
271 -247 0
-204 202 0
-250 202 0
-224 223 0
-203 251 0
-231 223 0
-203 260 0
-99 13 0
-99 251 0
163 -164 0
-205 204 0
-208 204 0
-209 208 0
-247 208 0
-235 209 0
-36 263 0
-210 209 0
-211 210 0
156 -155 0
-155 157 0
-223 210 0
-157 265 0
-212 211 0
-220 211 0
-213 212 0
269 -3 0
114 -113 0
-172 25 0
-237 236 0
-113 115 0
-134 11 0
-134 133 0
-115 267 0
-180 179 0
-244 235 0
-190 183 0
-236 235 0
-172 251 0
-194 267 0
-20 265 0
-79 -78 0
80 -78 0
251 -142 0
-142 11 0
-81 261 0
259 -198 0
199 -198 0
-164 25 0
268 -199 0
-199 267 0
c p weight 256 0.67260444 0
c p weight -256 0.32739556 0
c p weight 257 0.70873913 0
c p weight -257 0.29126087 0
c p weight 258 0.56885650 0
c p weight -258 0.43114350 0
c p weight 259 0.25456631 0
c p weight -259 0.74543369 0
c p weight 260 0.20600473 0
c p weight -260 0.79399527 0
c p weight 261 0.22626034 0
c p weight -261 0.77373966 0
c p weight 262 0.71429523 0
c p weight -262 0.28570477 0
c p weight 263 0.36025864 0
c p weight -263 0.63974136 0
c p weight 264 0.68572279 0
c p weight -264 0.31427721 0
c p weight 265 0.79371903 0
c p weight -265 0.20628097 0
c p weight 266 0.34138104 0
c p weight -266 0.65861896 0
c p weight 267 0.35097473 0
c p weight -267 0.64902527 0
c p weight 268 0.31820171 0
c p weight -268 0.68179829 0
c p weight 269 0.42080992 0
c p weight -269 0.57919008 0
c p weight 270 0.55312410 0
c p weight -270 0.44687590 0
c p weight 271 0.33421283 0
c p weight -271 0.66578717 0
c p weight 272 0.54334380 0
c p weight -272 0.45665620 0
c p weight 273 0.35027401 0
c p weight -273 0.64972599 0
c p weight 274 0.57199099 0
c p weight -274 0.42800901 0
c p weight 275 0.72859309 0
c p weight -275 0.27140691 0
c p weight 276 0.64247813 0
c p weight -276 0.35752187 0
c p weight 277 0.60659463 0
c p weight -277 0.39340537 0
c p weight 278 0.56712293 0
c p weight -278 0.43287707 0
c p weight 279 0.34359455 0
c p weight -279 0.65640545 0
c p weight 280 0.36118737 0
c p weight -280 0.63881263 0
c p weight 281 0.78512240 0
c p weight -281 0.21487760 0
c p weight 282 0.77291278 0
c p weight -282 0.22708722 0
c p weight 283 0.55232079 0
c p weight -283 0.44767921 0
c p weight 284 0.24086254 0
c p weight -284 0.75913746 0
c p weight 285 0.39155686 0
c p weight -285 0.60844314 0
c p weight 286 0.42557763 0
c p weight -286 0.57442237 0
c p weight 287 0.52089707 0
c p weight -287 0.47910293 0
c p weight 251 0.73073219 0
c p weight -251 0.26926781 0
c p weight 252 0.45826746 0
c p weight -252 0.54173254 0
c p weight 253 0.28442220 0
c p weight -253 0.71557780 0
c p weight 254 0.38933279 0
c p weight -254 0.61066721 0
c p weight 255 0.22688245 0
c p weight -255 0.77311755 0
